
Gurobi 9.5.2 (mac64[arm]) logging started Wed Apr 12 21:52:35 2023

Set parameter LogFile to value "./ccga_results/2023-04-12 21-52-27-798/MSP_TimeStampConvert_gurobi_log.txt"

Gurobi 9.5.2 (mac64[arm]) logging started Wed Apr 12 21:52:37 2023

Set parameter LogFile to value "./ccga_results/2023-04-12 21-52-27-798/MSP_TimeStampConvert_gurobi_log.txt"
Set parameter TimeLimit to value 180
Gurobi Optimizer version 9.5.2 build v9.5.2rc0 (mac64[arm])
Thread count: 8 physical cores, 8 logical processors, using up to 8 threads
Optimize a model with 600 rows, 457 columns and 1482 nonzeros
Model fingerprint: 0x14a5970e
Variable types: 25 continuous, 432 integer (432 binary)
Coefficient statistics:
  Matrix range     [1e+00, 1e+00]
  Objective range  [1e+00, 1e+00]
  Bounds range     [2e+03, 2e+03]
  RHS range        [1e+00, 1e+00]
Found heuristic solution: objective 38400.000000

Explored 0 nodes (0 simplex iterations) in 0.00 seconds (0.00 work units)
Thread count was 1 (of 8 available processors)

Solution count 1: 38400 

Optimal solution found (tolerance 5.00e-02)
Best objective 3.840000000000e+04, best bound 3.840000000000e+04, gap 0.0000%

User-callback calls 21, time in user-callback 0.00 sec
Gurobi Optimizer version 9.5.2 build v9.5.2rc0 (mac64[arm])
Thread count: 8 physical cores, 8 logical processors, using up to 8 threads
Optimize a model with 2149 rows, 961 columns and 6467 nonzeros
Model fingerprint: 0x3a4f9180
Variable types: 481 continuous, 480 integer (480 binary)
Coefficient statistics:
  Matrix range     [4e-03, 8e+02]
  Objective range  [1e+00, 1e+00]
  Bounds range     [2e+03, 2e+03]
  RHS range        [1e+00, 1e+08]

MIP start from previous solve did not produce a new incumbent solution

Presolve removed 431 rows and 133 columns
Presolve time: 0.02s
Presolved: 1718 rows, 828 columns, 5680 nonzeros
Variable types: 408 continuous, 420 integer (420 binary)
Found heuristic solution: objective 37871.339700

Explored 0 nodes (0 simplex iterations) in 0.02 seconds (0.04 work units)
Thread count was 8 (of 8 available processors)

Solution count 1: 37871.3 

Optimal solution found (tolerance 5.00e-02)
Best objective 3.787133969972e+04, best bound 3.840000000000e+04, gap 1.3959%

User-callback calls 506, time in user-callback 0.00 sec
Gurobi Optimizer version 9.5.2 build v9.5.2rc0 (mac64[arm])
Thread count: 8 physical cores, 8 logical processors, using up to 8 threads
Optimize a model with 3698 rows, 1465 columns and 11452 nonzeros
Model fingerprint: 0xc7432d88
Variable types: 937 continuous, 528 integer (528 binary)
Coefficient statistics:
  Matrix range     [3e-03, 8e+02]
  Objective range  [1e+00, 1e+00]
  Bounds range     [2e+03, 2e+03]
  RHS range        [1e+00, 1e+08]

MIP start from previous solve produced solution with objective 37478.3 (0.01s)
Loaded MIP start from previous solve with objective 37478.3


Explored 0 nodes (0 simplex iterations) in 0.01 seconds (0.02 work units)
Thread count was 1 (of 8 available processors)

Solution count 2: 37478.3 37478.3 

Optimal solution found (tolerance 5.00e-02)
Best objective 3.747830187786e+04, best bound 3.840000000000e+04, gap 2.4593%

User-callback calls 36, time in user-callback 0.00 sec
Gurobi Optimizer version 9.5.2 build v9.5.2rc0 (mac64[arm])
Thread count: 8 physical cores, 8 logical processors, using up to 8 threads
Optimize a model with 5247 rows, 1969 columns and 16437 nonzeros
Model fingerprint: 0x3b793345
Variable types: 1393 continuous, 576 integer (576 binary)
Coefficient statistics:
  Matrix range     [3e-03, 8e+02]
  Objective range  [1e+00, 1e+00]
  Bounds range     [2e+03, 2e+03]
  RHS range        [1e+00, 1e+08]

MIP start from previous solve produced solution with objective 37290.1 (0.02s)
Loaded MIP start from previous solve with objective 37290.1


Explored 0 nodes (0 simplex iterations) in 0.02 seconds (0.04 work units)
Thread count was 1 (of 8 available processors)

Solution count 1: 37290.1 

Optimal solution found (tolerance 5.00e-02)
Best objective 3.729005972583e+04, best bound 3.840000000000e+04, gap 2.9765%

User-callback calls 42, time in user-callback 0.00 sec
Gurobi Optimizer version 9.5.2 build v9.5.2rc0 (mac64[arm])
Thread count: 8 physical cores, 8 logical processors, using up to 8 threads
Optimize a model with 6796 rows, 2473 columns and 21422 nonzeros
Model fingerprint: 0x13b3adb9
Variable types: 1849 continuous, 624 integer (624 binary)
Coefficient statistics:
  Matrix range     [3e-03, 8e+02]
  Objective range  [1e+00, 1e+00]
  Bounds range     [2e+03, 2e+03]
  RHS range        [1e+00, 1e+08]

MIP start from previous solve produced solution with objective 37074.7 (0.03s)
Loaded MIP start from previous solve with objective 37074.7


Explored 0 nodes (0 simplex iterations) in 0.03 seconds (0.05 work units)
Thread count was 1 (of 8 available processors)

Solution count 1: 37074.7 

Optimal solution found (tolerance 5.00e-02)
Best objective 3.707472972217e+04, best bound 3.840000000000e+04, gap 3.5746%

User-callback calls 47, time in user-callback 0.00 sec
Gurobi Optimizer version 9.5.2 build v9.5.2rc0 (mac64[arm])
Thread count: 8 physical cores, 8 logical processors, using up to 8 threads
Optimize a model with 8345 rows, 2977 columns and 26407 nonzeros
Model fingerprint: 0x4fd0c26d
Variable types: 2305 continuous, 672 integer (672 binary)
Coefficient statistics:
  Matrix range     [3e-03, 8e+02]
  Objective range  [1e+00, 1e+00]
  Bounds range     [2e+03, 2e+03]
  RHS range        [1e+00, 1e+08]

MIP start from previous solve produced solution with objective 37049.3 (0.03s)
Loaded MIP start from previous solve with objective 37049.3


Explored 0 nodes (0 simplex iterations) in 0.03 seconds (0.06 work units)
Thread count was 1 (of 8 available processors)

Solution count 1: 37049.3 

Optimal solution found (tolerance 5.00e-02)
Best objective 3.704932104002e+04, best bound 3.840000000000e+04, gap 3.6456%

User-callback calls 49, time in user-callback 0.00 sec
Gurobi Optimizer version 9.5.2 build v9.5.2rc0 (mac64[arm])
Thread count: 8 physical cores, 8 logical processors, using up to 8 threads
Optimize a model with 9894 rows, 3481 columns and 31392 nonzeros
Model fingerprint: 0xf07c6b90
Variable types: 2761 continuous, 720 integer (720 binary)
Coefficient statistics:
  Matrix range     [3e-03, 8e+02]
  Objective range  [1e+00, 1e+00]
  Bounds range     [2e+03, 2e+03]
  RHS range        [1e+00, 1e+08]

MIP start from previous solve produced solution with objective 37023 (0.04s)
Loaded MIP start from previous solve with objective 37023


Explored 0 nodes (0 simplex iterations) in 0.04 seconds (0.06 work units)
Thread count was 1 (of 8 available processors)

Solution count 1: 37023 

Optimal solution found (tolerance 5.00e-02)
Best objective 3.702297190520e+04, best bound 3.840000000000e+04, gap 3.7194%

User-callback calls 53, time in user-callback 0.00 sec
Gurobi Optimizer version 9.5.2 build v9.5.2rc0 (mac64[arm])
Thread count: 8 physical cores, 8 logical processors, using up to 8 threads
Optimize a model with 11443 rows, 3985 columns and 36377 nonzeros
Model fingerprint: 0x6112424d
Variable types: 3217 continuous, 768 integer (768 binary)
Coefficient statistics:
  Matrix range     [3e-03, 8e+02]
  Objective range  [1e+00, 1e+00]
  Bounds range     [2e+03, 2e+03]
  RHS range        [1e+00, 1e+08]

MIP start from previous solve produced solution with objective 36861.6 (0.04s)
Loaded MIP start from previous solve with objective 36861.6


Explored 0 nodes (0 simplex iterations) in 0.04 seconds (0.07 work units)
Thread count was 1 (of 8 available processors)

Solution count 1: 36861.6 

Optimal solution found (tolerance 5.00e-02)
Best objective 3.686155662647e+04, best bound 3.840000000000e+04, gap 4.1736%

User-callback calls 54, time in user-callback 0.00 sec
Gurobi Optimizer version 9.5.2 build v9.5.2rc0 (mac64[arm])
Thread count: 8 physical cores, 8 logical processors, using up to 8 threads
Optimize a model with 12992 rows, 4489 columns and 41362 nonzeros
Model fingerprint: 0x9e7d5b1b
Variable types: 3673 continuous, 816 integer (816 binary)
Coefficient statistics:
  Matrix range     [3e-03, 8e+02]
  Objective range  [1e+00, 1e+00]
  Bounds range     [2e+03, 2e+03]
  RHS range        [1e+00, 1e+08]

MIP start from previous solve produced solution with objective 36829.6 (0.05s)
Loaded MIP start from previous solve with objective 36829.6


Explored 0 nodes (0 simplex iterations) in 0.05 seconds (0.08 work units)
Thread count was 1 (of 8 available processors)

Solution count 2: 36829.6 36829.6 

Optimal solution found (tolerance 5.00e-02)
Best objective 3.682956759522e+04, best bound 3.840000000000e+04, gap 4.2641%

User-callback calls 57, time in user-callback 0.00 sec
Gurobi Optimizer version 9.5.2 build v9.5.2rc0 (mac64[arm])
Thread count: 8 physical cores, 8 logical processors, using up to 8 threads
Optimize a model with 14541 rows, 4993 columns and 46347 nonzeros
Model fingerprint: 0xb6ed8448
Variable types: 4129 continuous, 864 integer (864 binary)
Coefficient statistics:
  Matrix range     [3e-03, 8e+02]
  Objective range  [1e+00, 1e+00]
  Bounds range     [2e+03, 2e+03]
  RHS range        [1e+00, 1e+08]

MIP start from previous solve produced solution with objective 34976 (0.05s)
Loaded MIP start from previous solve with objective 34976

Presolve removed 3492 rows and 1090 columns
Presolve time: 0.11s
Presolved: 11049 rows, 3903 columns, 38202 nonzeros
Variable types: 3480 continuous, 423 integer (420 binary)

Root relaxation: objective 3.739200e+04, 6040 iterations, 0.10 seconds (0.12 work units)

    Nodes    |    Current Node    |     Objective Bounds      |     Work
 Expl Unexpl |  Obj  Depth IntInf | Incumbent    BestBd   Gap | It/Node Time

     0     0 37392.0020    0  218 34975.9695 37392.0020  6.91%     -    0s
H    0     0                    35725.151445 37392.0020  4.67%     -    0s

Explored 1 nodes (8850 simplex iterations) in 0.57 seconds (0.83 work units)
Thread count was 8 (of 8 available processors)

Solution count 2: 35725.2 34976 

Optimal solution found (tolerance 5.00e-02)
Best objective 3.572515144494e+04, best bound 3.739200203568e+04, gap 4.6658%

User-callback calls 683, time in user-callback 0.00 sec
Gurobi Optimizer version 9.5.2 build v9.5.2rc0 (mac64[arm])
Thread count: 8 physical cores, 8 logical processors, using up to 8 threads
Optimize a model with 16090 rows, 5497 columns and 51332 nonzeros
Model fingerprint: 0x8b4640ec
Variable types: 4585 continuous, 912 integer (912 binary)
Coefficient statistics:
  Matrix range     [3e-03, 8e+02]
  Objective range  [1e+00, 1e+00]
  Bounds range     [2e+03, 2e+03]
  RHS range        [1e+00, 1e+08]

MIP start from previous solve produced solution with objective 26747.5 (0.07s)
Loaded MIP start from previous solve with objective 26747.5

Presolve removed 3875 rows and 1210 columns
Presolve time: 0.12s
Presolved: 12215 rows, 4287 columns, 42257 nonzeros
Variable types: 3864 continuous, 423 integer (420 binary)

Root relaxation: objective 3.601809e+04, 7178 iterations, 0.18 seconds (0.22 work units)

    Nodes    |    Current Node    |     Objective Bounds      |     Work
 Expl Unexpl |  Obj  Depth IntInf | Incumbent    BestBd   Gap | It/Node Time

     0     0 36018.0924    0  250 26747.4947 36018.0924  34.7%     -    0s
H    0     0                    31793.740343 36018.0924  13.3%     -    0s
     0     0 35306.5657    0  266 31793.7403 35306.5657  11.0%     -    1s
H    0     0                    32316.402302 35306.5657  9.25%     -    1s
H    0     0                    32321.193116 35255.3395  9.08%     -    1s
     0     0 35249.3343    0  253 32321.1931 35249.3343  9.06%     -    1s
     0     0 35237.3677    0  252 32321.1931 35237.3677  9.02%     -    1s
     0     0 35235.6889    0  266 32321.1931 35235.6889  9.02%     -    1s
     0     0 35235.5590    0  265 32321.1931 35235.5590  9.02%     -    1s
     0     0 35235.5294    0  266 32321.1931 35235.5294  9.02%     -    1s
H    0     0                    32347.732565 34850.3960  7.74%     -    1s
     0     0 34850.3960    0  248 32347.7326 34850.3960  7.74%     -    1s
H    0     0                    32408.362792 34850.3960  7.54%     -    2s
H    0     0                    32559.121496 34780.6942  6.82%     -    2s
     0     0 34780.6942    0  248 32559.1215 34780.6942  6.82%     -    2s
     0     0 34765.2769    0  249 32559.1215 34765.2769  6.78%     -    2s
     0     0 34761.0987    0  254 32559.1215 34761.0987  6.76%     -    2s
     0     0 34759.6510    0  254 32559.1215 34759.6510  6.76%     -    2s
     0     0 34759.4536    0  255 32559.1215 34759.4536  6.76%     -    2s
     0     0 34602.8066    0  263 32559.1215 34602.8066  6.28%     -    2s
     0     0 34576.3048    0  289 32559.1215 34576.3048  6.20%     -    2s
     0     0 34570.1390    0  282 32559.1215 34570.1390  6.18%     -    2s
     0     0 34569.5485    0  274 32559.1215 34569.5485  6.17%     -    2s
     0     0 34569.5229    0  271 32559.1215 34569.5229  6.17%     -    2s
     0     0 34515.6380    0  258 32559.1215 34515.6380  6.01%     -    3s
     0     0 34509.0451    0  263 32559.1215 34509.0451  5.99%     -    3s
     0     0 34507.8358    0  258 32559.1215 34507.8358  5.99%     -    3s
     0     0 34507.2812    0  264 32559.1215 34507.2812  5.98%     -    3s
     0     0 34507.1399    0  266 32559.1215 34507.1399  5.98%     -    3s
     0     0 34488.9810    0  264 32559.1215 34488.9810  5.93%     -    3s
     0     0 34488.8359    0  263 32559.1215 34488.8359  5.93%     -    3s
     0     0 34482.1610    0  261 32559.1215 34482.1610  5.91%     -    3s
     0     0 34481.8427    0  268 32559.1215 34481.8427  5.91%     -    3s
     0     0 34479.1121    0  262 32559.1215 34479.1121  5.90%     -    4s
     0     0 34478.7186    0  272 32559.1215 34478.7186  5.90%     -    4s
     0     0 34478.5193    0  273 32559.1215 34478.5193  5.90%     -    4s
     0     0 34475.5201    0  257 32559.1215 34475.5201  5.89%     -    4s
     0     0 34475.5201    0  257 32559.1215 34475.5201  5.89%     -    4s
     0     2 34475.5201    0  257 32559.1215 34475.5201  5.89%     -    4s
     7    16 33370.8773    3  227 32559.1215 34462.1661  5.84%  1981    5s
H  401   338                    32592.136695 34417.8407  5.60%   622    9s
H  451   386                    32598.221483 34417.8407  5.58%   604   10s
H  452   386                    32677.389051 34417.8407  5.33%   604   10s
H  511   392                    32831.965579 34417.8407  4.83%   593   10s
H  519   392                    32866.815170 34417.8407  4.72%   594   10s

Cutting planes:
  Gomory: 11
  Implied bound: 58
  MIR: 334
  Flow cover: 498
  RLT: 85
  Relax-and-lift: 491

Explored 522 nodes (349470 simplex iterations) in 10.89 seconds (21.16 work units)
Thread count was 8 (of 8 available processors)

Solution count 10: 32866.8 32832 32677.4 ... 31793.7

Optimal solution found (tolerance 5.00e-02)
Best objective 3.286681517032e+04, best bound 3.441784068851e+04, gap 4.7191%

User-callback calls 3500, time in user-callback 0.00 sec
Gurobi Optimizer version 9.5.2 build v9.5.2rc0 (mac64[arm])
Thread count: 8 physical cores, 8 logical processors, using up to 8 threads
Optimize a model with 17639 rows, 6001 columns and 56317 nonzeros
Model fingerprint: 0xa9657abc
Variable types: 5041 continuous, 960 integer (960 binary)
Coefficient statistics:
  Matrix range     [3e-03, 8e+02]
  Objective range  [1e+00, 1e+00]
  Bounds range     [2e+03, 2e+03]
  RHS range        [1e+00, 1e+08]

MIP start from previous solve produced solution with objective 25003 (0.08s)
Loaded MIP start from previous solve with objective 25003

Presolve removed 4258 rows and 1330 columns
Presolve time: 0.13s
Presolved: 13381 rows, 4671 columns, 46319 nonzeros
Variable types: 4248 continuous, 423 integer (420 binary)

Root relaxation: objective 3.460116e+04, 8968 iterations, 0.33 seconds (0.41 work units)

    Nodes    |    Current Node    |     Objective Bounds      |     Work
 Expl Unexpl |  Obj  Depth IntInf | Incumbent    BestBd   Gap | It/Node Time

     0     0 34601.1629    0  271 25003.0266 34601.1629  38.4%     -    0s
     0     0 33650.6097    0  284 25003.0266 33650.6097  34.6%     -    1s
H    0     0                    25234.351949 33650.6097  33.4%     -    2s
     0     0 33296.4189    0  279 25234.3519 33296.4189  31.9%     -    2s
     0     0 33296.1418    0  255 25234.3519 33296.1418  31.9%     -    2s
     0     0 33295.9405    0  260 25234.3519 33295.9405  31.9%     -    2s
     0     0 33293.9463    0  260 25234.3519 33293.9463  31.9%     -    2s
     0     0 33293.8498    0  261 25234.3519 33293.8498  31.9%     -    2s
H    0     0                    27865.951470 33293.8498  19.5%     -    2s
H    0     0                    28490.068227 33009.9223  15.9%     -    3s
     0     0 33009.9223    0  269 28490.0682 33009.9223  15.9%     -    3s
     0     0 32859.2421    0  278 28490.0682 32859.2421  15.3%     -    3s
     0     0 32827.5597    0  282 28490.0682 32827.5597  15.2%     -    3s
     0     0 32811.6674    0  277 28490.0682 32811.6674  15.2%     -    3s
     0     0 32808.4054    0  275 28490.0682 32808.4054  15.2%     -    3s
     0     0 32807.6974    0  276 28490.0682 32807.6974  15.2%     -    3s
     0     0 32807.0398    0  275 28490.0682 32807.0398  15.2%     -    3s
     0     0 32806.8109    0  275 28490.0682 32806.8109  15.2%     -    3s
     0     0 32691.2843    0  281 28490.0682 32691.2843  14.7%     -    4s
H    0     0                    28659.489423 32691.2843  14.1%     -    4s
     0     0 32674.8898    0  292 28659.4894 32674.8898  14.0%     -    4s
     0     0 32672.5915    0  294 28659.4894 32672.5915  14.0%     -    4s
     0     0 32671.8503    0  285 28659.4894 32671.8503  14.0%     -    4s
     0     0 32670.8106    0  288 28659.4894 32670.8106  14.0%     -    4s
     0     0 32670.6392    0  288 28659.4894 32670.6392  14.0%     -    4s
     0     0 32625.1747    0  282 28659.4894 32625.1747  13.8%     -    5s
     0     0 32612.2340    0  285 28659.4894 32612.2340  13.8%     -    5s
     0     0 32610.5776    0  290 28659.4894 32610.5776  13.8%     -    5s
     0     0 32609.8389    0  291 28659.4894 32609.8389  13.8%     -    5s
     0     0 32609.6493    0  290 28659.4894 32609.6493  13.8%     -    5s
     0     0 32572.6097    0  267 28659.4894 32572.6097  13.7%     -    5s
     0     0 32566.2889    0  279 28659.4894 32566.2889  13.6%     -    5s
     0     0 32564.0046    0  273 28659.4894 32564.0046  13.6%     -    5s
     0     0 32561.4051    0  279 28659.4894 32561.4051  13.6%     -    5s
     0     0 32561.3123    0  285 28659.4894 32561.3123  13.6%     -    5s
     0     0 32538.4448    0  273 28659.4894 32538.4448  13.5%     -    6s
     0     0 32531.6253    0  281 28659.4894 32531.6253  13.5%     -    6s
     0     0 32530.9306    0  283 28659.4894 32530.9306  13.5%     -    6s
     0     0 32530.4520    0  287 28659.4894 32530.4520  13.5%     -    6s
     0     0 32514.9725    0  279 28659.4894 32514.9725  13.5%     -    6s
     0     0 32512.2764    0  286 28659.4894 32512.2764  13.4%     -    6s
     0     0 32512.1584    0  286 28659.4894 32512.1584  13.4%     -    6s
     0     0 32507.0632    0  287 28659.4894 32507.0632  13.4%     -    6s
     0     0 32506.1771    0  296 28659.4894 32506.1771  13.4%     -    6s
     0     0 32506.0925    0  300 28659.4894 32506.0925  13.4%     -    6s
     0     0 32504.0278    0  281 28659.4894 32504.0278  13.4%     -    6s
     0     0 32503.9707    0  291 28659.4894 32503.9707  13.4%     -    6s
H    0     0                    28692.276844 32503.9707  13.3%     -    7s
     0     0 32501.0884    0  291 28692.2768 32501.0884  13.3%     -    7s
     0     0 32501.0884    0  291 28692.2768 32501.0884  13.3%     -    7s
     0     2 32501.0884    0  291 28692.2768 32501.0884  13.3%     -    7s
H   53    54                    29394.872216 32454.7066  10.4%  1446    9s
    68    65     cutoff    8      29394.8722 32454.7066  10.4%  1370   10s
H  370   340                    29508.451505 32400.7543  9.80%   845   14s
   431   395 30830.5776   34  157 29508.4515 32400.7543  9.80%   813   15s
H  538   443                    29819.821791 32400.7543  8.66%   774   16s
H  731   546                    29868.020201 32334.9130  8.26%   773   19s
   769   568 31254.2370   16  205 29868.0202 32334.9130  8.26%   766   20s
  1223   948 30285.3366   26  138 29868.0202 32271.4682  8.05%   730   25s
  1460  1102 31416.9033   16  291 29868.0202 32237.6642  7.93%   705   31s
  1467  1107 30706.6402   42  254 29868.0202 32237.6642  7.93%   701   35s
  1482  1117 30995.8626   26  260 29868.0202 32137.7953  7.60%   694   40s
  1492  1123 30823.3549   39  275 29868.0202 32124.8798  7.56%   689   45s
  1494  1128 31687.6874   11  245 29868.0202 32124.8418  7.56%   729   52s
  1496  1131 31676.6322   12  258 29868.0202 32119.5596  7.54%   729   59s
  1500  1137 31662.8123   13  252 29868.0202 32113.3810  7.52%   734   61s
  1569  1179 31384.1317   17  235 29868.0202 32089.9913  7.44%   788   65s
  1672  1227 31471.0187   23  226 29868.0202 32003.8295  7.15%   854   70s
  1793  1300 31268.8667   31  224 29868.0202 31966.0444  7.02%   914   75s
H 1955  1319                    29880.267589 31966.0444  6.98%   941   78s
H 2014  1329                    29895.392676 31966.0444  6.93%   947   80s
H 2042  1269                    29902.987460 31966.0444  6.90%   952   80s
H 2056  1215                    29935.758130 31966.0444  6.78%   948   80s
H 2113  1193                    30028.331999 31966.0444  6.45%   955   82s
H 2120  1141                    30066.836197 31966.0444  6.32%   958   82s
  2226  1257 30638.8745   48  124 30066.8362 31966.0444  6.32%   963   85s
  2553  1328 30354.5435   68   73 30066.8362 31966.0444  6.32%   955   90s
  2804  1458 31639.6259   24  227 30066.8362 31965.3386  6.31%   960   95s
  3194  1557 31900.9928   18  230 30066.8362 31910.0739  6.13%   948  102s
H 3195  1484                    30113.296087 31910.0739  5.97%   947  102s
H 3203  1435                    30123.939135 31910.0739  5.93%   947  102s
  3276  1512 31366.1462   22  210 30123.9391 31910.0739  5.93%   954  105s
  3558  1682 30439.2468   52   84 30123.9391 31910.0739  5.93%   946  110s
H 3575  1592                    30175.027255 31910.0739  5.75%   942  110s
H 3708  1613                    30184.707266 31900.9928  5.69%   950  112s
  3717  1709 31501.9954   19  229 30184.7073 31900.9928  5.69%   951  115s
  4020  1950 30816.7739   45  141 30184.7073 31840.7006  5.49%   962  121s
* 4219  2031              84    30211.488506 31840.7006  5.39%   956  124s
  4331  2043 31414.5705   30  191 30211.4885 31840.7006  5.39%   956  127s
H 4349  2082                    30228.856475 31840.7006  5.33%   956  130s
  4577  2261     cutoff   73      30228.8565 31777.5373  5.12%   965  135s
  4850  2539 30473.3664   65  104 30228.8565 31760.5161  5.07%   974  140s

Cutting planes:
  Gomory: 22
  Implied bound: 15
  Projected implied bound: 11
  MIR: 585
  Flow cover: 1253
  RLT: 7
  Relax-and-lift: 87

Explored 5018 nodes (4944880 simplex iterations) in 140.37 seconds (291.66 work units)
Thread count was 8 (of 8 available processors)

Solution count 10: 30228.9 30211.5 30184.7 ... 29903

Optimal solution found (tolerance 5.00e-02)
Best objective 3.022885647459e+04, best bound 3.173978018953e+04, gap 4.9983%

User-callback calls 38333, time in user-callback 0.05 sec
Gurobi Optimizer version 9.5.2 build v9.5.2rc0 (mac64[arm])
Thread count: 8 physical cores, 8 logical processors, using up to 8 threads
Optimize a model with 19188 rows, 6505 columns and 61302 nonzeros
Model fingerprint: 0xbf7c6386
Variable types: 5497 continuous, 1008 integer (1008 binary)
Coefficient statistics:
  Matrix range     [3e-03, 8e+02]
  Objective range  [1e+00, 1e+00]
  Bounds range     [2e+03, 2e+03]
  RHS range        [1e+00, 1e+08]

MIP start from previous solve produced solution with objective 25002.8 (0.10s)
Loaded MIP start from previous solve with objective 25002.8

Presolve removed 4641 rows and 1450 columns
Presolve time: 0.16s
Presolved: 14547 rows, 5055 columns, 50391 nonzeros
Variable types: 4632 continuous, 423 integer (420 binary)

Root relaxation: objective 3.334082e+04, 10600 iterations, 0.45 seconds (0.57 work units)

    Nodes    |    Current Node    |     Objective Bounds      |     Work
 Expl Unexpl |  Obj  Depth IntInf | Incumbent    BestBd   Gap | It/Node Time

     0     0 33340.8196    0  294 25002.8428 33340.8196  33.3%     -    0s
H    0     0                    25936.724475 33340.8196  28.5%     -    1s
     0     0 31547.3355    0  268 25936.7245 31547.3355  21.6%     -    2s
     0     0 31211.4421    0  278 25936.7245 31211.4421  20.3%     -    2s
     0     0 31096.1448    0  281 25936.7245 31096.1448  19.9%     -    2s
     0     0 31086.2451    0  282 25936.7245 31086.2451  19.9%     -    2s
     0     0 31086.2451    0  277 25936.7245 31086.2451  19.9%     -    3s
     0     0 31080.9474    0  273 25936.7245 31080.9474  19.8%     -    3s
     0     0 31080.9428    0  273 25936.7245 31080.9428  19.8%     -    3s
     0     0 30652.6785    0  298 25936.7245 30652.6785  18.2%     -    3s
     0     0 30554.8622    0  273 25936.7245 30554.8622  17.8%     -    4s
     0     0 30484.2065    0  300 25936.7245 30484.2065  17.5%     -    4s
     0     0 30465.4687    0  296 25936.7245 30465.4687  17.5%     -    4s
     0     0 30456.2398    0  304 25936.7245 30456.2398  17.4%     -    4s
     0     0 30455.0997    0  303 25936.7245 30455.0997  17.4%     -    4s
     0     0 30454.2466    0  308 25936.7245 30454.2466  17.4%     -    4s
     0     0 30452.9247    0  299 25936.7245 30452.9247  17.4%     -    4s
     0     0 30452.7799    0  309 25936.7245 30452.7799  17.4%     -    4s
     0     0 30353.1223    0  273 25936.7245 30353.1223  17.0%     -    5s
     0     0 30331.2364    0  271 25936.7245 30331.2364  16.9%     -    5s
     0     0 30324.9059    0  297 25936.7245 30324.9059  16.9%     -    5s
     0     0 30323.9289    0  290 25936.7245 30323.9289  16.9%     -    5s
     0     0 30323.6259    0  290 25936.7245 30323.6259  16.9%     -    5s
     0     0 30287.3644    0  281 25936.7245 30287.3644  16.8%     -    5s
     0     0 30284.9152    0  263 25936.7245 30284.9152  16.8%     -    5s
     0     0 30282.4102    0  265 25936.7245 30282.4102  16.8%     -    5s
     0     0 30281.9459    0  276 25936.7245 30281.9459  16.8%     -    6s
H    0     0                    26136.867535 30271.5891  15.8%     -    6s
     0     0 30271.5891    0  265 26136.8675 30271.5891  15.8%     -    6s
     0     0 30269.6639    0  285 26136.8675 30269.6639  15.8%     -    6s
     0     0 30268.9873    0  285 26136.8675 30268.9873  15.8%     -    6s
     0     0 30266.1567    0  312 26136.8675 30266.1567  15.8%     -    6s
     0     0 30262.1198    0  299 26136.8675 30262.1198  15.8%     -    6s
     0     0 30259.8015    0  306 26136.8675 30259.8015  15.8%     -    6s
     0     0 30259.7553    0  318 26136.8675 30259.7553  15.8%     -    6s
     0     0 30251.4350    0  295 26136.8675 30251.4350  15.7%     -    7s
     0     0 30251.0610    0  293 26136.8675 30251.0610  15.7%     -    7s
     0     0 30247.6666    0  302 26136.8675 30247.6666  15.7%     -    7s
     0     0 30239.9602    0  298 26136.8675 30239.9602  15.7%     -    7s
     0     0 30238.6729    0  306 26136.8675 30238.6729  15.7%     -    7s
     0     0 30238.4731    0  314 26136.8675 30238.4731  15.7%     -    7s
     0     0 30223.1405    0  308 26136.8675 30223.1405  15.6%     -    7s
     0     0 30222.1627    0  300 26136.8675 30222.1627  15.6%     -    7s
     0     0 30221.3875    0  303 26136.8675 30221.3875  15.6%     -    7s
     0     0 30220.5189    0  297 26136.8675 30220.5189  15.6%     -    7s
     0     0 30220.3308    0  294 26136.8675 30220.3308  15.6%     -    8s
     0     0 30219.9686    0  291 26136.8675 30219.9686  15.6%     -    8s
     0     0 30219.9686    0  288 26136.8675 30219.9686  15.6%     -    8s
     0     2 30219.9686    0  288 26136.8675 30219.9686  15.6%     -    8s
     7    16 28981.2129    3  274 26136.8675 30190.7715  15.5%  3526   10s
H   63    66                    26330.711249 30112.9887  14.4%  2088   12s
H   79    84                    26703.196031 30112.9887  12.8%  1882   13s
   146   165 27559.2866   19  210 26703.1960 30112.9887  12.8%  1519   15s
   413   381 26758.4351   30  156 26703.1960 30112.9887  12.8%  1049   20s
H  414   381                    26768.196031 30112.9887  12.5%  1047   20s
H  450   398                    26821.979829 30112.9887  12.3%  1053   20s
H  467   415                    26957.279397 30112.9887  11.7%  1051   21s
H  510   437                    27026.686249 30022.2242  11.1%  1037   23s
H  512   437                    27122.216688 30022.2242  10.7%  1043   23s
   626   526 28606.5682   14  250 27122.2167 30022.2242  10.7%  1004   25s
   925   742 29401.5734    7  276 27122.2167 29945.1227  10.4%   920   30s
  1277  1004 27492.3488   16  210 27122.2167 29945.1227  10.4%   882   35s
H 1400  1072                    27203.282132 29654.3231  9.01%   877   38s
  1499  1123 28614.4095    7  288 27203.2821 29654.3231  9.01%   868   47s
  1502  1125 28231.8218   33  300 27203.2821 29654.3231  9.01%   867   50s
  1517  1135 27493.3946   25  283 27203.2821 29654.3231  9.01%   858   55s
  1523  1142 29654.3231   14  276 27203.2821 29654.3231  9.01%   885   65s
  1525  1145 29654.3231   15  264 27203.2821 29654.3231  9.01%   889   73s
  1537  1157 29569.7355   17  253 27203.2821 29654.3231  9.01%   902   75s
